NAME: instances/5_3.tsp
TYPE: TSP
COMMENT: 5-Staedte in Burma (Zaw Win)
DIMENSION: 5
EDGE_WEIGHT_TYPE: GEO
EDGE_WEIGHT_FORMAT: FUNCTION
DISPLAY_DATA_TYPE: COORD_DISPLAY
NODE_COORD_SECTION
1 -21.9 1.34
2 -21.27 -6.58
3 2.24 11.79
4 -17.77 -28.41
5 17.41 -16.19
EOF
